34
3 1 4
4 3 2
5 1 3
5 2 4
6 3 2
7 0 1
7 6 4
8 1 3
8 2 4
8 4 2
8 6 2
8 7 1
9 2 1
9 3 2
9 5 3
9 6 3
9 7 1
9 8 2
10 0 2
10 3 1
10 4 1
10 5 2
10 7 4
10 8 2
10 9 1
11 1 2
11 4 3
11 5 2
11 6 4
11 8 1
11 9 3
11 10 3
12 1 1
12 2 2
12 3 1
12 4 4
12 7 3
12 8 3
12 10 4
12 11 4
13 0 3
13 2 1
13 4 1
13 6 1
13 11 2
14 1 2
14 2 1
14 3 1
14 4 1
14 5 4
14 8 3
14 9 1
14 10 4
14 11 3
14 12 4
14 13 2
15 0 1
15 4 1
15 7 1
15 8 3
15 11 1
15 12 1
15 14 3
16 0 4
16 1 3
16 2 2
16 3 2
16 4 1
16 5 4
16 6 3
16 7 1
16 10 3
16 11 2
16 14 1
17 0 1
17 2 1
17 3 1
17 4 4
17 7 4
17 8 2
17 11 3
17 12 2
17 16 3
18 4 4
18 7 2
18 9 3
18 14 3
18 15 4
18 17 3
19 1 1
19 4 2
19 5 1
19 8 4
19 9 1
19 10 1
19 12 2
19 14 2
20 1 3
20 2 2
20 3 2
20 14 1
20 16 3
20 17 4
20 19 4
21 1 2
21 2 2
21 3 1
21 4 3
21 5 3
21 6 3
21 9 1
21 11 4
21 12 4
21 13 2
21 15 4
21 20 1
22 2 4
22 6 1
22 7 3
22 8 2
22 10 4
22 12 4
22 16 4
22 17 1
22 21 1
23 1 4
23 3 1
23 4 1
23 5 2
23 8 3
23 10 2
23 11 4
23 12 2
23 13 4
23 14 1
23 17 2
23 18 1
23 19 3
23 21 1
24 1 2
24 2 4
24 4 3
24 6 4
24 9 1
24 11 2
24 12 1
24 14 4
24 15 1
24 16 4
24 17 3
24 18 4
24 22 3
25 0 2
25 2 2
25 3 2
25 5 3
25 6 4
25 8 4
25 10 2
25 15 2
25 20 3
25 23 4
26 1 4
26 4 1
26 5 3
26 6 3
26 8 4
26 9 2
26 10 2
26 12 1
26 14 4
26 17 3
26 22 2
27 0 4
27 2 3
27 6 1
27 7 3
27 9 3
27 10 1
27 12 1
27 13 1
27 14 2
27 15 1
27 16 3
27 17 1
27 22 3
28 0 1
28 2 2
28 6 2
28 8 4
28 11 3
28 12 1
28 13 4
28 14 2
28 16 4
28 17 2
28 19 4
28 24 4
28 25 2
28 27 1
29 0 1
29 1 2
29 4 2
29 5 3
29 7 3
29 12 3
29 13 3
29 14 3
29 17 2
29 18 3
29 20 4
29 23 2
29 24 1
29 25 2
29 27 3
30 3 2
30 10 2
30 11 3
30 14 3
30 15 4
30 16 4
30 17 1
30 20 1
30 22 2
30 23 2
30 24 4
30 25 4
30 28 2
31 0 1
31 1 4
31 2 4
31 3 4
31 4 4
31 5 1
31 8 2
31 12 2
31 14 4
31 15 3
31 17 3
31 18 4
31 19 2
31 20 4
31 22 4
31 24 2
31 28 2
32 1 1
32 7 2
32 8 1
32 9 2
32 10 3
32 11 2
32 12 1
32 13 1
32 14 2
32 15 4
32 16 3
32 17 2
32 18 4
32 19 1
32 21 2
32 23 1
32 26 1
32 28 4
33 0 4
33 2 3
33 3 3
33 4 2
33 5 1
33 7 2
33 10 1
33 12 2
33 16 1
33 19 3
33 20 3
33 21 1
33 22 4
33 23 2
33 28 4
33 30 4
